S = 4;
start = [|0,0,0,0,0,16,14,11,0,7,0,0,0,5,0,0|
10,0,0,3,0,0,0,0,0,0,6,12,9,0,7,0|
0,0,0,0,0,0,0,7,0,8,0,0,0,0,0,0|
9,7,0,1,12,0,0,8,5,0,11,3,0,0,0,6|
0,15,0,0,0,0,0,0,9,0,0,0,0,6,14,0|
0,0,0,0,0,11,0,0,0,15,0,0,0,0,0,0|
0,0,16,0,0,0,0,0,0,3,13,0,0,0,0,9|
0,0,7,0,0,12,0,0,4,0,8,0,0,0,0,0|
0,0,13,4,0,0,0,10,16,0,12,0,0,0,0,0|
0,0,0,7,0,0,0,0,0,0,0,0,0,0,16,0|
8,0,0,0,2,14,0,0,3,6,0,0,12,0,13,0|
16,2,0,12,0,8,13,0,7,0,10,11,0,15,0,0|
0,0,4,8,14,1,0,3,0,0,0,0,0,12,2,10|
6,0,0,0,15,0,5,0,8,12,0,0,0,0,4,1|
0,0,9,0,0,0,11,16,6,0,0,10,0,3,0,0|
0,0,0,0,8,0,12,0,0,0,4,13,0,0,0,0|];